words_train/words_280_SAT.qaiger
aag 89 16 0 1 73
26
28
18
30
32
16
22
2
6
20
4
12
10
24
14
8
178
34 21 19
36 34 23
38 36 25
40 38 27
42 40 29
44 42 31
46 43 30
48 47 45
50 48 14
52 41 28
54 53 43
56 54 12
58 39 26
60 59 41
62 60 10
64 37 24
66 65 39
68 66 8
70 35 22
72 71 37
74 72 6
76 73 7
78 77 75
80 21 4
82 81 18
84 82 3
86 20 5
88 87 35
90 88 85
92 90 78
94 93 75
96 67 9
98 97 69
100 98 95
102 101 69
104 61 11
106 105 63
108 106 103
110 109 63
112 55 13
114 113 57
116 114 111
118 117 57
120 49 15
122 121 51
124 122 119
126 125 51
128 33 17
130 32 16
132 131 129
134 133 44
136 132 45
138 137 135
140 138 126
142 139 127
144 143 141
146 107 102
148 147 109
150 123 118
152 151 125
154 91 79
156 155 93
158 99 94
160 159 101
162 115 110
164 163 117
166 165 161
168 166 157
170 168 153
172 170 149
174 173 144
176 172 145
178 177 175
i0 2 y[4]
i1 2 y[5]
i2 2 y[0]
i3 2 y[6]
i4 2 y[7]
i5 1 x[7]
i6 2 y[2]
i7 1 x[0]
i8 1 x[2]
i9 2 y[1]
i10 1 x[1]
i11 1 x[5]
i12 1 x[4]
i13 2 y[3]
i14 1 x[6]
i15 1 x[3]
o0 bv[0]
c
simplified
  >=
    add
      1
      1
    subtract
      subtract
        1 x
        2 y
      1
