words_train/words_280_SAT.qaiger.qdimacs
p cnf 89 220
a 1 2 3 4 5 6 7 8 0
e 9 10 11 12 13 14 15 16 17 18 19 20 21 22 23 24 25 26 27 28 29 30 31 32 33 34 35 36 37 38 39 40 41 42 43 44 45 46 47 48 49 50 51 52 53 54 55 56 57 58 59 60 61 62 63 64 65 66 67 68 69 70 71 72 73 74 75 76 77 78 79 80 81 82 83 84 85 86 87 88 89 0
10 9 17 0
-10 -17 0
-9 -17 0
-17 11 18 0
17 -18 0
-11 -18 0
-18 12 19 0
18 -19 0
-12 -19 0
-19 13 20 0
19 -20 0
-13 -20 0
-20 14 21 0
20 -21 0
-14 -21 0
-21 15 22 0
21 -22 0
-15 -22 0
21 -15 23 0
-21 -23 0
15 -23 0
23 22 24 0
-23 -24 0
-22 -24 0
-24 -7 25 0
24 -25 0
7 -25 0
20 -14 26 0
-20 -26 0
14 -26 0
26 21 27 0
-26 -27 0
-21 -27 0
-27 -6 28 0
27 -28 0
6 -28 0
19 -13 29 0
-19 -29 0
13 -29 0
29 20 30 0
-29 -30 0
-20 -30 0
-30 -5 31 0
30 -31 0
5 -31 0
18 -12 32 0
-18 -32 0
12 -32 0
32 19 33 0
-32 -33 0
-19 -33 0
-33 -4 34 0
33 -34 0
4 -34 0
17 -11 35 0
-17 -35 0
11 -35 0
35 18 36 0
-35 -36 0
-18 -36 0
-36 -3 37 0
36 -37 0
3 -37 0
36 3 38 0
-36 -38 0
-3 -38 0
38 37 39 0
-38 -39 0
-37 -39 0
10 -2 40 0
-10 -40 0
2 -40 0
40 -9 41 0
-40 -41 0
9 -41 0
-41 1 42 0
41 -42 0
-1 -42 0
-10 2 43 0
10 -43 0
-2 -43 0
43 17 44 0
-43 -44 0
-17 -44 0
-44 42 45 0
44 -45 0
-42 -45 0
-45 -39 46 0
45 -46 0
39 -46 0
46 37 47 0
-46 -47 0
-37 -47 0
33 4 48 0
-33 -48 0
-4 -48 0
48 34 49 0
-48 -49 0
-34 -49 0
-49 47 50 0
49 -50 0
-47 -50 0
50 34 51 0
-50 -51 0
-34 -51 0
30 5 52 0
-30 -52 0
-5 -52 0
52 31 53 0
-52 -53 0
-31 -53 0
-53 51 54 0
53 -54 0
-51 -54 0
54 31 55 0
-54 -55 0
-31 -55 0
27 6 56 0
-27 -56 0
-6 -56 0
56 28 57 0
-56 -57 0
-28 -57 0
-57 55 58 0
57 -58 0
-55 -58 0
58 28 59 0
-58 -59 0
-28 -59 0
24 7 60 0
-24 -60 0
-7 -60 0
60 25 61 0
-60 -61 0
-25 -61 0
-61 59 62 0
61 -62 0
-59 -62 0
62 25 63 0
-62 -63 0
-25 -63 0
16 8 64 0
-16 -64 0
-8 -64 0
-16 -8 65 0
16 -65 0
8 -65 0
65 64 66 0
-65 -66 0
-64 -66 0
66 -22 67 0
-66 -67 0
22 -67 0
-66 22 68 0
66 -68 0
-22 -68 0
68 67 69 0
-68 -69 0
-67 -69 0
-69 -63 70 0
69 -70 0
63 -70 0
69 63 71 0
-69 -71 0
-63 -71 0
71 70 72 0
-71 -72 0
-70 -72 0
53 -51 73 0
-53 -73 0
51 -73 0
73 54 74 0
-73 -74 0
-54 -74 0
61 -59 75 0
-61 -75 0
59 -75 0
75 62 76 0
-75 -76 0
-62 -76 0
45 39 77 0
-45 -77 0
-39 -77 0
77 46 78 0
-77 -78 0
-46 -78 0
49 -47 79 0
-49 -79 0
47 -79 0
79 50 80 0
-79 -80 0
-50 -80 0
57 -55 81 0
-57 -81 0
55 -81 0
81 58 82 0
-81 -82 0
-58 -82 0
82 80 83 0
-82 -83 0
-80 -83 0
-83 78 84 0
83 -84 0
-78 -84 0
-84 76 85 0
84 -85 0
-76 -85 0
-85 74 86 0
85 -86 0
-74 -86 0
86 -72 87 0
-86 -87 0
72 -87 0
-86 72 88 0
86 -88 0
-72 -88 0
88 87 89 0
-88 -89 0
-87 -89 0
89 0
